p tdp 117 116
28 55
83 5
72 66
81 83
106 2
86 78
7 40
52 46
37 58
59 51
10 36
12 29
63 64
35 85
18 114
25 76
6 80
85 74
49 73
24 93
23 93
21 65
62 57
30 102
95 98
13 92
19 75
105 116
60 87
39 42
107 1
57 117
32 30
74 110
3 8
68 79
27 11
58 3
58 103
67 91
71 92
89 33
61 78
23 55
18 1
1 49
19 34
48 30
31 77
4 77
5 78
111 41
46 2
9 82
50 61
115 39
2 90
27 74
108 68
99 16
110 36
26 15
85 96
22 8
14 59
17 28
32 70
84 4
23 20
54 56
53 97
42 101
112 21
41 69
104 102
36 47
20 57
97 80
51 22
38 94
39 80
15 64
111 45
18 43
7 110
13 78
34 88
34 94
106 59
66 29
100 103
54 75
18 17
66 26
113 44
2 84
63 111
114 9
109 65
95 60
53 108
19 105
25 80
48 67
116 16
34 113
65 23
33 98
76 37
19 18
89 102
78 25
63 34
45 8
35 62
6 98
